benchmark/results/graph__10-1000-0.10-04_2/graph__10-1000-0.10-04_2_QuintonOs_Benders_aux.lp
\ This file has been generated by DOcplex
\ ENCODING=ISO-8859-1
\Problem name: Quinton Bounded Benders_auxiliary_sub

Minimize
 obj: 0.001478216534 pi_nr_a0 + 0.000972762646 pi_nr_a1
      + 0.002377385575 pi_nr_a2 + 0.001071811265 pi_nr_a3
      + 0.001142980563 pi_nr_a4 + 0.001001930345 pi_nr_a5
      + 0.001639344262 pi_nr_a6 + 0.000990033203 pi_nr_a7
      + 0.003966484160 pi_nr_a8 + 0.001371742112 pi_nr_a9 + 2 pi_p_a0_a1
      + pi_p_a4_a7 + pi_p_a5_a4 + pi_p_a8_a2 + pi_p_a3_a2 + pi_p_a8_a8
      + 2374.901175678079 pi_d_a0_a1_proc_0
      + 2473.365853388589 pi_d_a0_a1_proc_1
      + 2347.901175678079 pi_d_a1_a0_proc_0
      + 2446.365853388589 pi_d_a1_a0_proc_1
      + 1598.647387183850 pi_d_a0_a2_proc_2
      + 2293.429955288002 pi_d_a0_a2_proc_0
      + 2473.315084471790 pi_d_a0_a2_proc_1
      + 1571.649966044016 pi_d_a2_a0_proc_2
      + 2266.432534148168 pi_d_a2_a0_proc_0
      + 2446.317663331956 pi_d_a2_a0_proc_1
      + 2350.171617929523 pi_d_a0_a3_proc_0
      + 1167.637212395042 pi_d_a0_a3_proc_1
      + 2372.629816671858 pi_d_a3_a0_proc_0
      + 1190.095411137377 pi_d_a3_a0_proc_1 + 432.111872977155 pi_d_a0_a4_proc_2
      + 2283.357725016883 pi_d_a0_a4_proc_0
      + 2420.915611613676 pi_d_a0_a4_proc_1 + 424.945949680449 pi_d_a4_a0_proc_2
      + 2276.191801720178 pi_d_a4_a0_proc_0
      + 2413.749688316972 pi_d_a4_a0_proc_1
      + 1353.991590805750 pi_d_a0_a5_proc_2
      + 1389.596358942748 pi_d_a0_a5_proc_0
      + 2348.835591942026 pi_d_a0_a5_proc_1
      + 1376.042565398717 pi_d_a5_a0_proc_2
      + 1411.647333535715 pi_d_a5_a0_proc_0
      + 2370.886566534992 pi_d_a5_a0_proc_1
      + 1596.598405399732 pi_d_a0_a6_proc_2
      + 1091.766610145194 pi_d_a0_a6_proc_0
      + 2471.231287854963 pi_d_a0_a6_proc_1
      + 1573.867536466476 pi_d_a6_a0_proc_2
      + 1069.035741211938 pi_d_a6_a0_proc_0
      + 2448.500418921706 pi_d_a6_a0_proc_1
      + 1452.778474259758 pi_d_a0_a7_proc_2
      + 2347.970303137809 pi_d_a0_a7_proc_0
      + 1284.854754175332 pi_d_a0_a7_proc_1
      + 1479.376119877828 pi_d_a7_a0_proc_2
      + 2374.567948755880 pi_d_a7_a0_proc_0
      + 1311.452399793403 pi_d_a7_a0_proc_1
      + 1587.115020698004 pi_d_a0_a8_proc_2
      + 2373.734071331712 pi_d_a0_a8_proc_0
      + 1201.787413483581 pi_d_a0_a8_proc_1
      + 1562.357350355857 pi_d_a8_a0_proc_2
      + 2348.976400989566 pi_d_a8_a0_proc_0
      + 1177.029743141434 pi_d_a8_a0_proc_1 + 83.431845408003 pi_d_a1_a2_proc_3
      + 2482.358209681203 pi_d_a1_a2_proc_0
      + 2563.778661154940 pi_d_a1_a2_proc_1 + 80.775564124689 pi_d_a2_a1_proc_3
      + 2479.701928397890 pi_d_a2_a1_proc_0
      + 2561.122379871626 pi_d_a2_a1_proc_1
      + 2575.999541622152 pi_d_a1_a3_proc_0
      + 1295.000458377620 pi_d_a1_a3_proc_1
      + 2548.999541622152 pi_d_a3_a1_proc_0
      + 1268.000458377620 pi_d_a3_a1_proc_1
      + 1267.868370591145 pi_d_a1_a4_proc_3
      + 2467.378282943558 pi_d_a1_a4_proc_0
      + 2506.471491830301 pi_d_a1_a4_proc_1
      + 1294.858980084014 pi_d_a4_a1_proc_3
      + 2494.368892436426 pi_d_a4_a1_proc_0
      + 2533.462101323169 pi_d_a4_a1_proc_1
      + 1294.999996379275 pi_d_a1_a5_proc_3
      + 1615.220670519705 pi_d_a1_a5_proc_0
      + 2475.995225808932 pi_d_a1_a5_proc_1
      + 1267.999996461251 pi_d_a5_a1_proc_3
      + 1588.220670601681 pi_d_a5_a1_proc_0
      + 2448.995225890908 pi_d_a5_a1_proc_1
      + 1295.000000000232 pi_d_a1_a6_proc_3
      + 1295.000000000027 pi_d_a1_a6_proc_0
      + 2575.999999999745 pi_d_a1_a6_proc_1
      + 1268.000000000232 pi_d_a6_a1_proc_3
      + 1268.000000000028 pi_d_a6_a1_proc_0
      + 2548.999999999745 pi_d_a6_a1_proc_1
      + 2575.867950268303 pi_d_a1_a7_proc_0
      + 1414.287723595776 pi_d_a1_a7_proc_1
      + 2548.867950268308 pi_d_a7_a1_proc_0
      + 1387.287723595781 pi_d_a7_a1_proc_1
      + 1295.000000000159 pi_d_a1_a8_proc_3
      + 2575.954060482100 pi_d_a1_a8_proc_0
      + 1305.542724923918 pi_d_a1_a8_proc_1
      + 1268.000000000160 pi_d_a8_a1_proc_3
      + 2548.954060482100 pi_d_a8_a1_proc_0
      + 1278.542724923919 pi_d_a8_a1_proc_1 - 11.883025239645 pi_d_a1_a9_proc_3
      + 12.883025240113 pi_d_a9_a1_proc_3 + 2494.529069902690 pi_d_a2_a3_proc_0
      + 1294.950438131435 pi_d_a2_a3_proc_1
      + 2467.530151421627 pi_d_a3_a2_proc_0
      + 1267.951519650372 pi_d_a3_a2_proc_1
      + 1418.319501938609 pi_d_a2_a4_proc_2
      + 1375.575235965543 pi_d_a2_a4_proc_3
      + 2412.011512592080 pi_d_a2_a4_proc_0
      + 2532.525172952100 pi_d_a2_a4_proc_1
      + 1393.103790214445 pi_d_a4_a2_proc_2
      + 1350.359524241379 pi_d_a4_a2_proc_3
      + 2386.795800867917 pi_d_a4_a2_proc_0
      + 2507.309461227936 pi_d_a4_a2_proc_1
      + 2328.703250966439 pi_d_a2_a5_proc_2
      + 1349.607139302625 pi_d_a2_a5_proc_3
      + 1506.754177717180 pi_d_a2_a5_proc_0
      + 2448.949184479683 pi_d_a2_a5_proc_1
      + 2355.696374733478 pi_d_a5_a2_proc_2
      + 1376.600263069664 pi_d_a5_a2_proc_3
      + 1533.747301484218 pi_d_a5_a2_proc_0
      + 2475.942308246722 pi_d_a5_a2_proc_1
      + 2575.025323921701 pi_d_a2_a6_proc_2
      + 1375.713323006986 pi_d_a2_a6_proc_3
      + 1212.639687280905 pi_d_a2_a6_proc_0
      + 2575.060138753900 pi_d_a2_a6_proc_1
      + 2549.806087439957 pi_d_a6_a2_proc_2
      + 1350.494086525242 pi_d_a6_a2_proc_3
      + 1187.420450799161 pi_d_a6_a2_proc_0
      + 2549.840902272157 pi_d_a6_a2_proc_1
      + 2456.756537069581 pi_d_a2_a7_proc_2
      + 2494.394524561375 pi_d_a2_a7_proc_0
      + 1414.234749362125 pi_d_a2_a7_proc_1
      + 2429.763526563454 pi_d_a7_a2_proc_2
      + 2467.401514055248 pi_d_a7_a2_proc_0
      + 1387.241738855998 pi_d_a7_a2_proc_1
      + 2562.890865210525 pi_d_a2_a8_proc_2
      + 1374.075649701911 pi_d_a2_a8_proc_3
      + 2491.956074457976 pi_d_a2_a8_proc_0
      + 1302.965190373071 pi_d_a2_a8_proc_1
      + 2540.946975338786 pi_d_a8_a2_proc_2
      + 1352.131759830171 pi_d_a8_a2_proc_3
      + 2470.012184586237 pi_d_a8_a2_proc_0
      + 1281.021300501332 pi_d_a8_a2_proc_1 + 68.925031117328 pi_d_a2_a9_proc_3
      + 95.282378414904 pi_d_a9_a2_proc_3 + 2493.941480696411 pi_d_a3_a4_proc_0
      + 1252.035606338162 pi_d_a3_a4_proc_1
      + 2467.804777928797 pi_d_a4_a3_proc_0
      + 1225.898903570548 pi_d_a4_a3_proc_1
      + 1614.127268839390 pi_d_a3_a5_proc_0
      + 1193.902740883625 pi_d_a3_a5_proc_1
      + 1589.313155527220 pi_d_a5_a3_proc_0
      + 1169.088627571455 pi_d_a5_a3_proc_1
      + 1294.999536970873 pi_d_a3_a6_proc_0
      + 1295.000453725599 pi_d_a3_a6_proc_1
      + 1267.999546274405 pi_d_a6_a3_proc_0
      + 1268.000463029132 pi_d_a6_a3_proc_1
      + 2564.234332316764 pi_d_a3_a7_proc_0 + 121.655022399245 pi_d_a3_a7_proc_1
      + 2560.500651465070 pi_d_a7_a3_proc_0 + 117.921341547552 pi_d_a7_a3_proc_1
      + 2563.091850952800 pi_d_a3_a8_proc_0 + 11.681432149627 pi_d_a3_a8_proc_1
      + 2561.815353256624 pi_d_a8_a3_proc_0 + 10.404934453450 pi_d_a8_a3_proc_1
      + 1197.083953810578 pi_d_a4_a5_proc_2
      + 2573.867578003129 pi_d_a4_a5_proc_3
      + 1531.598164496896 pi_d_a4_a5_proc_0
      + 2431.465928672405 pi_d_a4_a5_proc_1
      + 1174.076141319076 pi_d_a5_a4_proc_2
      + 2550.859765511627 pi_d_a5_a4_proc_3
      + 1508.590352005394 pi_d_a5_a4_proc_0
      + 2408.458116180904 pi_d_a5_a4_proc_1
      + 1394.776766974314 pi_d_a4_a6_proc_2
      + 2551.344501915964 pi_d_a4_a6_proc_3
      + 1188.854414269096 pi_d_a4_a6_proc_0
      + 2508.947623155097 pi_d_a4_a6_proc_1
      + 1416.815113817082 pi_d_a6_a4_proc_2
      + 2573.382848758731 pi_d_a6_a4_proc_3
      + 1210.892761111863 pi_d_a6_a4_proc_0
      + 2530.985969997864 pi_d_a6_a4_proc_1
      + 1299.378547737780 pi_d_a4_a7_proc_2
      + 2493.479819165151 pi_d_a4_a7_proc_0
      + 1370.992801378907 pi_d_a4_a7_proc_1
      + 1273.901985324993 pi_d_a7_a4_proc_2
      + 2468.003256752364 pi_d_a7_a4_proc_0
      + 1345.516238966120 pi_d_a7_a4_proc_1
      + 1408.264163093181 pi_d_a4_a8_proc_2
      + 2575.328683440931 pi_d_a4_a8_proc_3
      + 2493.792656276209 pi_d_a4_a8_proc_0
      + 1262.474529604310 pi_d_a4_a8_proc_1
      + 1382.334146885868 pi_d_a8_a4_proc_2
      + 2549.398667233618 pi_d_a8_a4_proc_3
      + 2467.862640068896 pi_d_a8_a4_proc_0
      + 1236.544513396996 pi_d_a8_a4_proc_1
      + 1267.865465507549 pi_d_a4_a9_proc_3
      + 1294.861885167151 pi_d_a9_a4_proc_3
      + 2346.033809524449 pi_d_a5_a6_proc_2
      + 2566.249698775351 pi_d_a5_a6_proc_3 + 324.470372916500 pi_d_a5_a6_proc_0
      + 2466.244928204985 pi_d_a5_a6_proc_1
      + 2338.534404813809 pi_d_a6_a5_proc_2
      + 2558.750294064710 pi_d_a6_a5_proc_3 + 316.970968205860 pi_d_a6_a5_proc_0
      + 2458.745523494345 pi_d_a6_a5_proc_1
      + 2233.480894996358 pi_d_a5_a7_proc_2
      + 1611.941082520997 pi_d_a5_a7_proc_0
      + 1311.135411137237 pi_d_a5_a7_proc_1
      + 2212.775971613278 pi_d_a7_a5_proc_2
      + 1591.236159137919 pi_d_a7_a5_proc_0
      + 1290.430487754158 pi_d_a7_a5_proc_1
      + 2344.378788873631 pi_d_a5_a8_proc_2
      + 2575.091463530634 pi_d_a5_a8_proc_3
      + 1614.266198153929 pi_d_a5_a8_proc_0
      + 1204.629417884513 pi_d_a5_a8_proc_1
      + 2319.195854652280 pi_d_a8_a5_proc_2
      + 2549.908529309282 pi_d_a8_a5_proc_3
      + 1589.083263932577 pi_d_a8_a5_proc_0
      + 1179.446483663162 pi_d_a8_a5_proc_1
      + 1294.999996357625 pi_d_a5_a9_proc_3
      + 1267.999996482441 pi_d_a9_a5_proc_3
      + 2433.217924428403 pi_d_a6_a7_proc_2
      + 1271.241548561506 pi_d_a6_a7_proc_0
      + 1390.661321888237 pi_d_a6_a7_proc_1
      + 2453.470727842975 pi_d_a7_a6_proc_2
      + 1291.494351976078 pi_d_a7_a6_proc_0
      + 1410.914125302809 pi_d_a7_a6_proc_1
      + 2565.497833945418 pi_d_a6_a8_proc_2
      + 2575.994619351519 pi_d_a6_a8_proc_3
      + 1294.948679834179 pi_d_a6_a8_proc_0
      + 1305.537344275255 pi_d_a6_a8_proc_1
      + 2538.508595242235 pi_d_a8_a6_proc_2
      + 2549.005380648336 pi_d_a8_a6_proc_3
      + 1267.959441130996 pi_d_a8_a6_proc_0
      + 1278.548105572072 pi_d_a8_a6_proc_1
      + 1291.628501892092 pi_d_a6_a9_proc_3
      + 1271.371498107912 pi_d_a9_a6_proc_3
      + 2433.539903516375 pi_d_a7_a8_proc_2
      + 2563.014373537725 pi_d_a7_a8_proc_0 + 131.022811306556 pi_d_a7_a8_proc_1
      + 2432.155177942656 pi_d_a8_a7_proc_2
      + 2561.629647964006 pi_d_a8_a7_proc_0 + 129.638085732837 pi_d_a8_a7_proc_1
      + 1294.999999999929 pi_d_a8_a9_proc_3
      + 1267.999999999930 pi_d_a9_a8_proc_3 + 0.156985811336 pi_y2_a0_proc_0
      + 0.080120333030 pi_y2_a0_proc_1 + 0.762893855634 pi_y2_a0_proc_2
      + 0.000000000000 pi_y2_a1_proc_0 + 1.000000000000 pi_y2_a1_proc_3
      + 0.063598697081 pi_y2_a2_proc_0 + 0.000038625673 pi_y2_a2_proc_1
      + 0.000065803528 pi_y2_a2_proc_2 + 0.936296873719 pi_y2_a2_proc_3
      + 0.000000357828 pi_y2_a3_proc_0 + 0.999999642172 pi_y2_a3_proc_1
      + 0.063720852701 pi_y2_a4_proc_0 + 0.033203125233 pi_y2_a4_proc_1
      + 0.902969601565 pi_y2_a4_proc_2 + 0.000106420502 pi_y2_a4_proc_3
      + 0.750022895737 pi_y2_a5_proc_0 + 0.078067739383 pi_y2_a5_proc_1
      + 0.171909362085 pi_y2_a5_proc_2 + 0.000000002795 pi_y2_a5_proc_3
      + 1.000000000000 pi_y2_a6_proc_0 + 0.000000000000 pi_y2_a6_proc_1
      + 0.000103083319 pi_y2_a7_proc_0 + 0.906879216553 pi_y2_a7_proc_1
      + 0.093017700128 pi_y2_a7_proc_2 + 0.000035862231 pi_y2_a8_proc_0
      + 0.991769925899 pi_y2_a8_proc_1 + 0.008194211871 pi_y2_a8_proc_2
      + 0.000000000000 pi_y2_a8_proc_3 + 1.000000000000 pi_y2_a9_proc_3
Subject To
 c1: 0.001287001287 pi_nr_a0 + 0.000972762646 pi_nr_a1 + 0.002463054187 pi_nr_a2
     + 0.001071811361 pi_nr_a3 + 0.001154734411 pi_nr_a4
     + 0.000920810313 pi_nr_a5 + 0.001639344262 pi_nr_a6
     + 0.001009081736 pi_nr_a7 + 0.003984063745 pi_nr_a8
     + 0.001371742112 pi_nr_a9 + 2 pi_p_a0_a1 + pi_p_a4_a7 + pi_p_a5_a4
     + pi_p_a8_a2 + pi_p_a3_a2 + pi_p_a8_a8 + 2576 pi_d_a0_a1_proc_0
     + 2576 pi_d_a0_a1_proc_1 + 2549 pi_d_a1_a0_proc_0 + 2549 pi_d_a1_a0_proc_1
     + 1295 pi_d_a0_a2_proc_2 + 2576 pi_d_a0_a2_proc_0 + 2576 pi_d_a0_a2_proc_1
     + 1268 pi_d_a2_a0_proc_2 + 2549 pi_d_a2_a0_proc_0 + 2549 pi_d_a2_a0_proc_1
     + 2549 pi_d_a0_a3_proc_0 + 1268 pi_d_a0_a3_proc_1 + 2576 pi_d_a3_a0_proc_0
     + 1295 pi_d_a3_a0_proc_1 + pi_d_a0_a4_proc_2 + 2563 pi_d_a0_a4_proc_0
     + 2563 pi_d_a0_a4_proc_1 + 2562 pi_d_a4_a0_proc_0 + 2562 pi_d_a4_a0_proc_1
     + 1268 pi_d_a0_a5_proc_2 + 1268 pi_d_a0_a5_proc_0 + 2549 pi_d_a0_a5_proc_1
     + 1295 pi_d_a5_a0_proc_2 + 1295 pi_d_a5_a0_proc_0 + 2576 pi_d_a5_a0_proc_1
     + 1295 pi_d_a0_a6_proc_2 + 1295 pi_d_a0_a6_proc_0 + 2576 pi_d_a0_a6_proc_1
     + 1268 pi_d_a6_a0_proc_2 + 1268 pi_d_a6_a0_proc_0 + 2549 pi_d_a6_a0_proc_1
     + 1268 pi_d_a0_a7_proc_2 + 2549 pi_d_a0_a7_proc_0 + 1268 pi_d_a0_a7_proc_1
     + 1295 pi_d_a7_a0_proc_2 + 2576 pi_d_a7_a0_proc_0 + 1295 pi_d_a7_a0_proc_1
     + 1295 pi_d_a0_a8_proc_2 + 2576 pi_d_a0_a8_proc_0 + 1295 pi_d_a0_a8_proc_1
     + 1268 pi_d_a8_a0_proc_2 + 2549 pi_d_a8_a0_proc_0 + 1268 pi_d_a8_a0_proc_1
     + pi_d_a1_a2_proc_3 + 2563 pi_d_a1_a2_proc_0 + 2563 pi_d_a1_a2_proc_1
     + 2562 pi_d_a2_a1_proc_0 + 2562 pi_d_a2_a1_proc_1 + 2576 pi_d_a1_a3_proc_0
     + 1295 pi_d_a1_a3_proc_1 + 2549 pi_d_a3_a1_proc_0 + 1268 pi_d_a3_a1_proc_1
     + 1268 pi_d_a1_a4_proc_3 + 2549 pi_d_a1_a4_proc_0 + 2549 pi_d_a1_a4_proc_1
     + 1295 pi_d_a4_a1_proc_3 + 2576 pi_d_a4_a1_proc_0 + 2576 pi_d_a4_a1_proc_1
     + 1295 pi_d_a1_a5_proc_3 + 1295 pi_d_a1_a5_proc_0 + 2576 pi_d_a1_a5_proc_1
     + 1268 pi_d_a5_a1_proc_3 + 1268 pi_d_a5_a1_proc_0 + 2549 pi_d_a5_a1_proc_1
     + 1295 pi_d_a1_a6_proc_3 + 1295 pi_d_a1_a6_proc_0 + 2576 pi_d_a1_a6_proc_1
     + 1268 pi_d_a6_a1_proc_3 + 1268 pi_d_a6_a1_proc_0 + 2549 pi_d_a6_a1_proc_1
     + 2576 pi_d_a1_a7_proc_0 + 1295 pi_d_a1_a7_proc_1 + 2549 pi_d_a7_a1_proc_0
     + 1268 pi_d_a7_a1_proc_1 + 1295 pi_d_a1_a8_proc_3 + 2576 pi_d_a1_a8_proc_0
     + 1295 pi_d_a1_a8_proc_1 + 1268 pi_d_a8_a1_proc_3 + 2549 pi_d_a8_a1_proc_0
     + 1268 pi_d_a8_a1_proc_1 - 13 pi_d_a1_a9_proc_3 + 14 pi_d_a9_a1_proc_3
     + 2576 pi_d_a2_a3_proc_0 + 1295 pi_d_a2_a3_proc_1 + 2549 pi_d_a3_a2_proc_0
     + 1268 pi_d_a3_a2_proc_1 + 1295 pi_d_a2_a4_proc_2 + 1295 pi_d_a2_a4_proc_3
     + 2576 pi_d_a2_a4_proc_0 + 2576 pi_d_a2_a4_proc_1 + 1268 pi_d_a4_a2_proc_2
     + 1268 pi_d_a4_a2_proc_3 + 2549 pi_d_a4_a2_proc_0 + 2549 pi_d_a4_a2_proc_1
     + 2549 pi_d_a2_a5_proc_2 + 1268 pi_d_a2_a5_proc_3 + 1268 pi_d_a2_a5_proc_0
     + 2549 pi_d_a2_a5_proc_1 + 2576 pi_d_a5_a2_proc_2 + 1295 pi_d_a5_a2_proc_3
     + 1295 pi_d_a5_a2_proc_0 + 2576 pi_d_a5_a2_proc_1 + 2576 pi_d_a2_a6_proc_2
     + 1295 pi_d_a2_a6_proc_3 + 1295 pi_d_a2_a6_proc_0 + 2576 pi_d_a2_a6_proc_1
     + 2549 pi_d_a6_a2_proc_2 + 1268 pi_d_a6_a2_proc_3 + 1268 pi_d_a6_a2_proc_0
     + 2549 pi_d_a6_a2_proc_1 + 2576 pi_d_a2_a7_proc_2 + 2576 pi_d_a2_a7_proc_0
     + 1295 pi_d_a2_a7_proc_1 + 2549 pi_d_a7_a2_proc_2 + 2549 pi_d_a7_a2_proc_0
     + 1268 pi_d_a7_a2_proc_1 + 2576 pi_d_a2_a8_proc_2 + 1295 pi_d_a2_a8_proc_3
     + 2576 pi_d_a2_a8_proc_0 + 1295 pi_d_a2_a8_proc_1 + 2549 pi_d_a8_a2_proc_2
     + 1268 pi_d_a8_a2_proc_3 + 2549 pi_d_a8_a2_proc_0 + 1268 pi_d_a8_a2_proc_1
     - 13 pi_d_a2_a9_proc_3 + 14 pi_d_a9_a2_proc_3 + 2576 pi_d_a3_a4_proc_0
     + 1295 pi_d_a3_a4_proc_1 + 2549 pi_d_a4_a3_proc_0 + 1268 pi_d_a4_a3_proc_1
     + 1295 pi_d_a3_a5_proc_0 + 1295 pi_d_a3_a5_proc_1 + 1268 pi_d_a5_a3_proc_0
     + 1268 pi_d_a5_a3_proc_1 + 1295 pi_d_a3_a6_proc_0 + 1295 pi_d_a3_a6_proc_1
     + 1268 pi_d_a6_a3_proc_0 + 1268 pi_d_a6_a3_proc_1 + 2563 pi_d_a3_a7_proc_0
     + pi_d_a3_a7_proc_1 + 2562 pi_d_a7_a3_proc_0 + 2563 pi_d_a3_a8_proc_0
     + pi_d_a3_a8_proc_1 + 2562 pi_d_a8_a3_proc_0 + 1295 pi_d_a4_a5_proc_2
     + 2576 pi_d_a4_a5_proc_3 + 1295 pi_d_a4_a5_proc_0 + 2576 pi_d_a4_a5_proc_1
     + 1268 pi_d_a5_a4_proc_2 + 2549 pi_d_a5_a4_proc_3 + 1268 pi_d_a5_a4_proc_0
     + 2549 pi_d_a5_a4_proc_1 + 1268 pi_d_a4_a6_proc_2 + 2549 pi_d_a4_a6_proc_3
     + 1268 pi_d_a4_a6_proc_0 + 2549 pi_d_a4_a6_proc_1 + 1295 pi_d_a6_a4_proc_2
     + 2576 pi_d_a6_a4_proc_3 + 1295 pi_d_a6_a4_proc_0 + 2576 pi_d_a6_a4_proc_1
     + 1295 pi_d_a4_a7_proc_2 + 2576 pi_d_a4_a7_proc_0 + 1295 pi_d_a4_a7_proc_1
     + 1268 pi_d_a7_a4_proc_2 + 2549 pi_d_a7_a4_proc_0 + 1268 pi_d_a7_a4_proc_1
     + 1295 pi_d_a4_a8_proc_2 + 2576 pi_d_a4_a8_proc_3 + 2576 pi_d_a4_a8_proc_0
     + 1295 pi_d_a4_a8_proc_1 + 1268 pi_d_a8_a4_proc_2 + 2549 pi_d_a8_a4_proc_3
     + 2549 pi_d_a8_a4_proc_0 + 1268 pi_d_a8_a4_proc_1 + 1268 pi_d_a4_a9_proc_3
     + 1295 pi_d_a9_a4_proc_3 + 2563 pi_d_a5_a6_proc_2 + 2563 pi_d_a5_a6_proc_3
     + pi_d_a5_a6_proc_0 + 2563 pi_d_a5_a6_proc_1 + 2562 pi_d_a6_a5_proc_2
     + 2562 pi_d_a6_a5_proc_3 + 2562 pi_d_a6_a5_proc_1 + 2576 pi_d_a5_a7_proc_2
     + 1295 pi_d_a5_a7_proc_0 + 1295 pi_d_a5_a7_proc_1 + 2549 pi_d_a7_a5_proc_2
     + 1268 pi_d_a7_a5_proc_0 + 1268 pi_d_a7_a5_proc_1 + 2576 pi_d_a5_a8_proc_2
     + 2576 pi_d_a5_a8_proc_3 + 1295 pi_d_a5_a8_proc_0 + 1295 pi_d_a5_a8_proc_1
     + 2549 pi_d_a8_a5_proc_2 + 2549 pi_d_a8_a5_proc_3 + 1268 pi_d_a8_a5_proc_0
     + 1268 pi_d_a8_a5_proc_1 + 1295 pi_d_a5_a9_proc_3 + 1268 pi_d_a9_a5_proc_3
     + 2549 pi_d_a6_a7_proc_2 + 1268 pi_d_a6_a7_proc_0 + 1268 pi_d_a6_a7_proc_1
     + 2576 pi_d_a7_a6_proc_2 + 1295 pi_d_a7_a6_proc_0 + 1295 pi_d_a7_a6_proc_1
     + 2576 pi_d_a6_a8_proc_2 + 2576 pi_d_a6_a8_proc_3 + 1295 pi_d_a6_a8_proc_0
     + 1295 pi_d_a6_a8_proc_1 + 2549 pi_d_a8_a6_proc_2 + 2549 pi_d_a8_a6_proc_3
     + 1268 pi_d_a8_a6_proc_0 + 1268 pi_d_a8_a6_proc_1 + 1295 pi_d_a6_a9_proc_3
     + 1268 pi_d_a9_a6_proc_3 + 2562 pi_d_a7_a8_proc_2 + 2562 pi_d_a7_a8_proc_0
     + 2563 pi_d_a8_a7_proc_2 + 2563 pi_d_a8_a7_proc_0 + pi_d_a8_a7_proc_1
     + 1295 pi_d_a8_a9_proc_3 + 1268 pi_d_a9_a8_proc_3 + pi_y2_a0_proc_2
     + pi_y2_a1_proc_3 + pi_y2_a2_proc_3 + pi_y2_a3_proc_1 + pi_y2_a4_proc_2
     + pi_y2_a5_proc_0 + pi_y2_a6_proc_0 + pi_y2_a7_proc_1 + pi_y2_a8_proc_1
     + pi_y2_a9_proc_3 = 0.000335908633
 c2: pi_nr_a0 + pi_nr_a1 + pi_nr_a2 + pi_nr_a3 + pi_nr_a4 + pi_nr_a5 + pi_nr_a6
     + pi_nr_a7 + pi_nr_a8 + pi_nr_a9 - pi_y1_a0 - pi_y1_a1 - pi_y1_a2
     - pi_y1_a3 - pi_y1_a4 - pi_y1_a5 - pi_y1_a6 - pi_y1_a7 - pi_y1_a8
     - pi_y1_a9 >= 1
 c3: pi_p_a0_a1 - pi_p_a4_a0 + pi_p_a0_a9 + pi_d_a0_a1_proc_0
     + pi_d_a0_a1_proc_1 - pi_d_a1_a0_proc_0 - pi_d_a1_a0_proc_1
     + pi_d_a0_a2_proc_2 + pi_d_a0_a2_proc_0 + pi_d_a0_a2_proc_1
     - pi_d_a2_a0_proc_2 - pi_d_a2_a0_proc_0 - pi_d_a2_a0_proc_1
     + pi_d_a0_a3_proc_0 + pi_d_a0_a3_proc_1 - pi_d_a3_a0_proc_0
     - pi_d_a3_a0_proc_1 + pi_d_a0_a4_proc_2 + pi_d_a0_a4_proc_0
     + pi_d_a0_a4_proc_1 - pi_d_a4_a0_proc_2 - pi_d_a4_a0_proc_0
     - pi_d_a4_a0_proc_1 + pi_d_a0_a5_proc_2 + pi_d_a0_a5_proc_0
     + pi_d_a0_a5_proc_1 - pi_d_a5_a0_proc_2 - pi_d_a5_a0_proc_0
     - pi_d_a5_a0_proc_1 + pi_d_a0_a6_proc_2 + pi_d_a0_a6_proc_0
     + pi_d_a0_a6_proc_1 - pi_d_a6_a0_proc_2 - pi_d_a6_a0_proc_0
     - pi_d_a6_a0_proc_1 + pi_d_a0_a7_proc_2 + pi_d_a0_a7_proc_0
     + pi_d_a0_a7_proc_1 - pi_d_a7_a0_proc_2 - pi_d_a7_a0_proc_0
     - pi_d_a7_a0_proc_1 + pi_d_a0_a8_proc_2 + pi_d_a0_a8_proc_0
     + pi_d_a0_a8_proc_1 - pi_d_a8_a0_proc_2 - pi_d_a8_a0_proc_0
     - pi_d_a8_a0_proc_1 >= 0
 c4: 516 pi_p_a0_a1 + 516 pi_p_a0_a9 + 516 pi_d_a0_a1_proc_0
     + 516 pi_d_a0_a2_proc_0 + 516 pi_d_a0_a3_proc_0 + 516 pi_d_a0_a4_proc_0
     + 516 pi_d_a0_a5_proc_0 + 516 pi_d_a0_a6_proc_0 + 516 pi_d_a0_a7_proc_0
     + 516 pi_d_a0_a8_proc_0 + pi_y1_a0 + pi_y2_a0_proc_0 >= 0
 c5: 417 pi_p_a0_a1 + 417 pi_p_a0_a9 + 417 pi_d_a0_a1_proc_1
     + 417 pi_d_a0_a2_proc_1 + 417 pi_d_a0_a3_proc_1 + 417 pi_d_a0_a4_proc_1
     + 417 pi_d_a0_a5_proc_1 + 417 pi_d_a0_a6_proc_1 + 417 pi_d_a0_a7_proc_1
     + 417 pi_d_a0_a8_proc_1 + pi_y1_a0 + pi_y2_a0_proc_1 >= 0
 c6: 777 pi_p_a0_a1 + 777 pi_p_a0_a9 + 777 pi_d_a0_a2_proc_2
     + 777 pi_d_a0_a4_proc_2 + 777 pi_d_a0_a5_proc_2 + 777 pi_d_a0_a6_proc_2
     + 777 pi_d_a0_a7_proc_2 + 777 pi_d_a0_a8_proc_2 + pi_y1_a0
     + pi_y2_a0_proc_2 >= 0
 c7: - pi_p_a0_a1 - pi_p_a2_a1 + pi_p_a1_a6 - pi_d_a0_a1_proc_0
     - pi_d_a0_a1_proc_1 + pi_d_a1_a0_proc_0 + pi_d_a1_a0_proc_1
     + pi_d_a1_a2_proc_3 + pi_d_a1_a2_proc_0 + pi_d_a1_a2_proc_1
     - pi_d_a2_a1_proc_3 - pi_d_a2_a1_proc_0 - pi_d_a2_a1_proc_1
     + pi_d_a1_a3_proc_0 + pi_d_a1_a3_proc_1 - pi_d_a3_a1_proc_0
     - pi_d_a3_a1_proc_1 + pi_d_a1_a4_proc_3 + pi_d_a1_a4_proc_0
     + pi_d_a1_a4_proc_1 - pi_d_a4_a1_proc_3 - pi_d_a4_a1_proc_0
     - pi_d_a4_a1_proc_1 + pi_d_a1_a5_proc_3 + pi_d_a1_a5_proc_0
     + pi_d_a1_a5_proc_1 - pi_d_a5_a1_proc_3 - pi_d_a5_a1_proc_0
     - pi_d_a5_a1_proc_1 + pi_d_a1_a6_proc_3 + pi_d_a1_a6_proc_0
     + pi_d_a1_a6_proc_1 - pi_d_a6_a1_proc_3 - pi_d_a6_a1_proc_0
     - pi_d_a6_a1_proc_1 + pi_d_a1_a7_proc_0 + pi_d_a1_a7_proc_1
     - pi_d_a7_a1_proc_0 - pi_d_a7_a1_proc_1 + pi_d_a1_a8_proc_3
     + pi_d_a1_a8_proc_0 + pi_d_a1_a8_proc_1 - pi_d_a8_a1_proc_3
     - pi_d_a8_a1_proc_0 - pi_d_a8_a1_proc_1 + pi_d_a1_a9_proc_3
     - pi_d_a9_a1_proc_3 >= 0
 c8: 1041 pi_p_a1_a6 + 1041 pi_d_a1_a0_proc_0 + 1041 pi_d_a1_a2_proc_0
     + 1041 pi_d_a1_a3_proc_0 + 1041 pi_d_a1_a4_proc_0 + 1041 pi_d_a1_a5_proc_0
     + 1041 pi_d_a1_a6_proc_0 + 1041 pi_d_a1_a7_proc_0 + 1041 pi_d_a1_a8_proc_0
     + pi_y1_a1 + pi_y2_a1_proc_0 >= 0
 c9: 1037 pi_p_a1_a6 + 1037 pi_d_a1_a0_proc_1 + 1037 pi_d_a1_a2_proc_1
     + 1037 pi_d_a1_a3_proc_1 + 1037 pi_d_a1_a4_proc_1 + 1037 pi_d_a1_a5_proc_1
     + 1037 pi_d_a1_a6_proc_1 + 1037 pi_d_a1_a7_proc_1 + 1037 pi_d_a1_a8_proc_1
     + pi_y1_a1 + pi_y2_a1_proc_1 >= 0
 c10: 1028 pi_p_a1_a6 + 1028 pi_d_a1_a2_proc_3 + 1028 pi_d_a1_a4_proc_3
      + 1028 pi_d_a1_a5_proc_3 + 1028 pi_d_a1_a6_proc_3 + 1028 pi_d_a1_a8_proc_3
      + 1028 pi_d_a1_a9_proc_3 + pi_y1_a1 + pi_y2_a1_proc_3 >= 0
 c11: pi_p_a2_a1 + pi_p_a2_a3 - pi_p_a8_a2 - pi_p_a3_a2 - pi_d_a0_a2_proc_2
      - pi_d_a0_a2_proc_0 - pi_d_a0_a2_proc_1 + pi_d_a2_a0_proc_2
      + pi_d_a2_a0_proc_0 + pi_d_a2_a0_proc_1 - pi_d_a1_a2_proc_3
      - pi_d_a1_a2_proc_0 - pi_d_a1_a2_proc_1 + pi_d_a2_a1_proc_3
      + pi_d_a2_a1_proc_0 + pi_d_a2_a1_proc_1 + pi_d_a2_a3_proc_0
      + pi_d_a2_a3_proc_1 - pi_d_a3_a2_proc_0 - pi_d_a3_a2_proc_1
      + pi_d_a2_a4_proc_2 + pi_d_a2_a4_proc_3 + pi_d_a2_a4_proc_0
      + pi_d_a2_a4_proc_1 - pi_d_a4_a2_proc_2 - pi_d_a4_a2_proc_3
      - pi_d_a4_a2_proc_0 - pi_d_a4_a2_proc_1 + pi_d_a2_a5_proc_2
      + pi_d_a2_a5_proc_3 + pi_d_a2_a5_proc_0 + pi_d_a2_a5_proc_1
      - pi_d_a5_a2_proc_2 - pi_d_a5_a2_proc_3 - pi_d_a5_a2_proc_0
      - pi_d_a5_a2_proc_1 + pi_d_a2_a6_proc_2 + pi_d_a2_a6_proc_3
      + pi_d_a2_a6_proc_0 + pi_d_a2_a6_proc_1 - pi_d_a6_a2_proc_2
      - pi_d_a6_a2_proc_3 - pi_d_a6_a2_proc_0 - pi_d_a6_a2_proc_1
      + pi_d_a2_a7_proc_2 + pi_d_a2_a7_proc_0 + pi_d_a2_a7_proc_1
      - pi_d_a7_a2_proc_2 - pi_d_a7_a2_proc_0 - pi_d_a7_a2_proc_1
      + pi_d_a2_a8_proc_2 + pi_d_a2_a8_proc_3 + pi_d_a2_a8_proc_0
      + pi_d_a2_a8_proc_1 - pi_d_a8_a2_proc_2 - pi_d_a8_a2_proc_3
      - pi_d_a8_a2_proc_0 - pi_d_a8_a2_proc_1 + pi_d_a2_a9_proc_3
      - pi_d_a9_a2_proc_3 >= 0
 c12: 894 pi_p_a2_a1 + 894 pi_p_a2_a3 + 894 pi_d_a2_a0_proc_0
      + 894 pi_d_a2_a1_proc_0 + 894 pi_d_a2_a3_proc_0 + 894 pi_d_a2_a4_proc_0
      + 894 pi_d_a2_a5_proc_0 + 894 pi_d_a2_a6_proc_0 + 894 pi_d_a2_a7_proc_0
      + 894 pi_d_a2_a8_proc_0 + pi_y1_a2 + pi_y2_a2_proc_0 >= 0
 c13: 1076 pi_p_a2_a1 + 1076 pi_p_a2_a3 + 1076 pi_d_a2_a0_proc_1
      + 1076 pi_d_a2_a1_proc_1 + 1076 pi_d_a2_a3_proc_1 + 1076 pi_d_a2_a4_proc_1
      + 1076 pi_d_a2_a5_proc_1 + 1076 pi_d_a2_a6_proc_1 + 1076 pi_d_a2_a7_proc_1
      + 1076 pi_d_a2_a8_proc_1 + pi_y1_a2 + pi_y2_a2_proc_1 >= 0
 c14: 1092 pi_p_a2_a1 + 1092 pi_p_a2_a3 + 1092 pi_d_a2_a0_proc_2
      + 1092 pi_d_a2_a4_proc_2 + 1092 pi_d_a2_a5_proc_2 + 1092 pi_d_a2_a6_proc_2
      + 1092 pi_d_a2_a7_proc_2 + 1092 pi_d_a2_a8_proc_2 + pi_y1_a2
      + pi_y2_a2_proc_2 >= 0
 c15: 406 pi_p_a2_a1 + 406 pi_p_a2_a3 + 406 pi_d_a2_a1_proc_3
      + 406 pi_d_a2_a4_proc_3 + 406 pi_d_a2_a5_proc_3 + 406 pi_d_a2_a6_proc_3
      + 406 pi_d_a2_a8_proc_3 + 406 pi_d_a2_a9_proc_3 + pi_y1_a2
      + pi_y2_a2_proc_3 >= 0
 c16: - pi_p_a2_a3 + pi_p_a3_a5 - pi_p_a6_a3 + pi_p_a3_a2 - pi_d_a0_a3_proc_0
      - pi_d_a0_a3_proc_1 + pi_d_a3_a0_proc_0 + pi_d_a3_a0_proc_1
      - pi_d_a1_a3_proc_0 - pi_d_a1_a3_proc_1 + pi_d_a3_a1_proc_0
      + pi_d_a3_a1_proc_1 - pi_d_a2_a3_proc_0 - pi_d_a2_a3_proc_1
      + pi_d_a3_a2_proc_0 + pi_d_a3_a2_proc_1 + pi_d_a3_a4_proc_0
      + pi_d_a3_a4_proc_1 - pi_d_a4_a3_proc_0 - pi_d_a4_a3_proc_1
      + pi_d_a3_a5_proc_0 + pi_d_a3_a5_proc_1 - pi_d_a5_a3_proc_0
      - pi_d_a5_a3_proc_1 + pi_d_a3_a6_proc_0 + pi_d_a3_a6_proc_1
      - pi_d_a6_a3_proc_0 - pi_d_a6_a3_proc_1 + pi_d_a3_a7_proc_0
      + pi_d_a3_a7_proc_1 - pi_d_a7_a3_proc_0 - pi_d_a7_a3_proc_1
      + pi_d_a3_a8_proc_0 + pi_d_a3_a8_proc_1 - pi_d_a8_a3_proc_0
      - pi_d_a8_a3_proc_1 >= 0
 c17: 1244 pi_p_a3_a5 + 1244 pi_p_a3_a2 + 1244 pi_d_a3_a0_proc_0
      + 1244 pi_d_a3_a1_proc_0 + 1244 pi_d_a3_a2_proc_0 + 1244 pi_d_a3_a4_proc_0
      + 1244 pi_d_a3_a5_proc_0 + 1244 pi_d_a3_a6_proc_0 + 1244 pi_d_a3_a7_proc_0
      + 1244 pi_d_a3_a8_proc_0 + pi_y1_a3 + pi_y2_a3_proc_0 >= 0
 c18: 933 pi_p_a3_a5 + 933 pi_p_a3_a2 + 933 pi_d_a3_a0_proc_1
      + 933 pi_d_a3_a1_proc_1 + 933 pi_d_a3_a2_proc_1 + 933 pi_d_a3_a4_proc_1
      + 933 pi_d_a3_a5_proc_1 + 933 pi_d_a3_a6_proc_1 + 933 pi_d_a3_a7_proc_1
      + 933 pi_d_a3_a8_proc_1 + pi_y1_a3 + pi_y2_a3_proc_1 >= 0
 c19: pi_p_a4_a0 + pi_p_a4_a7 - pi_p_a8_a4 - pi_p_a5_a4 - pi_d_a0_a4_proc_2
      - pi_d_a0_a4_proc_0 - pi_d_a0_a4_proc_1 + pi_d_a4_a0_proc_2
      + pi_d_a4_a0_proc_0 + pi_d_a4_a0_proc_1 - pi_d_a1_a4_proc_3
      - pi_d_a1_a4_proc_0 - pi_d_a1_a4_proc_1 + pi_d_a4_a1_proc_3
      + pi_d_a4_a1_proc_0 + pi_d_a4_a1_proc_1 - pi_d_a2_a4_proc_2
      - pi_d_a2_a4_proc_3 - pi_d_a2_a4_proc_0 - pi_d_a2_a4_proc_1
      + pi_d_a4_a2_proc_2 + pi_d_a4_a2_proc_3 + pi_d_a4_a2_proc_0
      + pi_d_a4_a2_proc_1 - pi_d_a3_a4_proc_0 - pi_d_a3_a4_proc_1
      + pi_d_a4_a3_proc_0 + pi_d_a4_a3_proc_1 + pi_d_a4_a5_proc_2
      + pi_d_a4_a5_proc_3 + pi_d_a4_a5_proc_0 + pi_d_a4_a5_proc_1
      - pi_d_a5_a4_proc_2 - pi_d_a5_a4_proc_3 - pi_d_a5_a4_proc_0
      - pi_d_a5_a4_proc_1 + pi_d_a4_a6_proc_2 + pi_d_a4_a6_proc_3
      + pi_d_a4_a6_proc_0 + pi_d_a4_a6_proc_1 - pi_d_a6_a4_proc_2
      - pi_d_a6_a4_proc_3 - pi_d_a6_a4_proc_0 - pi_d_a6_a4_proc_1
      + pi_d_a4_a7_proc_2 + pi_d_a4_a7_proc_0 + pi_d_a4_a7_proc_1
      - pi_d_a7_a4_proc_2 - pi_d_a7_a4_proc_0 - pi_d_a7_a4_proc_1
      + pi_d_a4_a8_proc_2 + pi_d_a4_a8_proc_3 + pi_d_a4_a8_proc_0
      + pi_d_a4_a8_proc_1 - pi_d_a8_a4_proc_2 - pi_d_a8_a4_proc_3
      - pi_d_a8_a4_proc_0 - pi_d_a8_a4_proc_1 + pi_d_a4_a9_proc_3
      - pi_d_a9_a4_proc_3 >= 0
 c20: 890 pi_p_a4_a0 + 890 pi_p_a4_a7 + 890 pi_d_a4_a0_proc_0
      + 890 pi_d_a4_a1_proc_0 + 890 pi_d_a4_a2_proc_0 + 890 pi_d_a4_a3_proc_0
      + 890 pi_d_a4_a5_proc_0 + 890 pi_d_a4_a6_proc_0 + 890 pi_d_a4_a7_proc_0
      + 890 pi_d_a4_a8_proc_0 + pi_y1_a4 + pi_y2_a4_proc_0 >= 0
 c21: 1165 pi_p_a4_a0 + 1165 pi_p_a4_a7 + 1165 pi_d_a4_a0_proc_1
      + 1165 pi_d_a4_a1_proc_1 + 1165 pi_d_a4_a2_proc_1 + 1165 pi_d_a4_a3_proc_1
      + 1165 pi_d_a4_a5_proc_1 + 1165 pi_d_a4_a6_proc_1 + 1165 pi_d_a4_a7_proc_1
      + 1165 pi_d_a4_a8_proc_1 + pi_y1_a4 + pi_y2_a4_proc_1 >= 0
 c22: 866 pi_p_a4_a0 + 866 pi_p_a4_a7 + 866 pi_d_a4_a0_proc_2
      + 866 pi_d_a4_a2_proc_2 + 866 pi_d_a4_a5_proc_2 + 866 pi_d_a4_a6_proc_2
      + 866 pi_d_a4_a7_proc_2 + 866 pi_d_a4_a8_proc_2 + pi_y1_a4
      + pi_y2_a4_proc_2 >= 0
 c23: 550 pi_p_a4_a0 + 550 pi_p_a4_a7 + 550 pi_d_a4_a1_proc_3
      + 550 pi_d_a4_a2_proc_3 + 550 pi_d_a4_a5_proc_3 + 550 pi_d_a4_a6_proc_3
      + 550 pi_d_a4_a8_proc_3 + 550 pi_d_a4_a9_proc_3 + pi_y1_a4
      + pi_y2_a4_proc_3 >= 0
 c24: - pi_p_a3_a5 + pi_p_a5_a4 - pi_d_a0_a5_proc_2 - pi_d_a0_a5_proc_0
      - pi_d_a0_a5_proc_1 + pi_d_a5_a0_proc_2 + pi_d_a5_a0_proc_0
      + pi_d_a5_a0_proc_1 - pi_d_a1_a5_proc_3 - pi_d_a1_a5_proc_0
      - pi_d_a1_a5_proc_1 + pi_d_a5_a1_proc_3 + pi_d_a5_a1_proc_0
      + pi_d_a5_a1_proc_1 - pi_d_a2_a5_proc_2 - pi_d_a2_a5_proc_3
      - pi_d_a2_a5_proc_0 - pi_d_a2_a5_proc_1 + pi_d_a5_a2_proc_2
      + pi_d_a5_a2_proc_3 + pi_d_a5_a2_proc_0 + pi_d_a5_a2_proc_1
      - pi_d_a3_a5_proc_0 - pi_d_a3_a5_proc_1 + pi_d_a5_a3_proc_0
      + pi_d_a5_a3_proc_1 - pi_d_a4_a5_proc_2 - pi_d_a4_a5_proc_3
      - pi_d_a4_a5_proc_0 - pi_d_a4_a5_proc_1 + pi_d_a5_a4_proc_2
      + pi_d_a5_a4_proc_3 + pi_d_a5_a4_proc_0 + pi_d_a5_a4_proc_1
      + pi_d_a5_a6_proc_2 + pi_d_a5_a6_proc_3 + pi_d_a5_a6_proc_0
      + pi_d_a5_a6_proc_1 - pi_d_a6_a5_proc_2 - pi_d_a6_a5_proc_3
      - pi_d_a6_a5_proc_0 - pi_d_a6_a5_proc_1 + pi_d_a5_a7_proc_2
      + pi_d_a5_a7_proc_0 + pi_d_a5_a7_proc_1 - pi_d_a7_a5_proc_2
      - pi_d_a7_a5_proc_0 - pi_d_a7_a5_proc_1 + pi_d_a5_a8_proc_2
      + pi_d_a5_a8_proc_3 + pi_d_a5_a8_proc_0 + pi_d_a5_a8_proc_1
      - pi_d_a8_a5_proc_2 - pi_d_a8_a5_proc_3 - pi_d_a8_a5_proc_0
      - pi_d_a8_a5_proc_1 + pi_d_a5_a9_proc_3 - pi_d_a9_a5_proc_3 >= 0
 c25: 1086 pi_p_a5_a4 + 1086 pi_d_a5_a0_proc_0 + 1086 pi_d_a5_a1_proc_0
      + 1086 pi_d_a5_a2_proc_0 + 1086 pi_d_a5_a3_proc_0 + 1086 pi_d_a5_a4_proc_0
      + 1086 pi_d_a5_a6_proc_0 + 1086 pi_d_a5_a7_proc_0 + 1086 pi_d_a5_a8_proc_0
      + pi_y1_a5 + pi_y2_a5_proc_0 >= 0
 c26: 719 pi_p_a5_a4 + 719 pi_d_a5_a0_proc_1 + 719 pi_d_a5_a1_proc_1
      + 719 pi_d_a5_a2_proc_1 + 719 pi_d_a5_a3_proc_1 + 719 pi_d_a5_a4_proc_1
      + 719 pi_d_a5_a6_proc_1 + 719 pi_d_a5_a7_proc_1 + 719 pi_d_a5_a8_proc_1
      + pi_y1_a5 + pi_y2_a5_proc_1 >= 0
 c27: 848 pi_p_a5_a4 + 848 pi_d_a5_a0_proc_2 + 848 pi_d_a5_a2_proc_2
      + 848 pi_d_a5_a4_proc_2 + 848 pi_d_a5_a6_proc_2 + 848 pi_d_a5_a7_proc_2
      + 848 pi_d_a5_a8_proc_2 + pi_y1_a5 + pi_y2_a5_proc_2 >= 0
 c28: 709 pi_p_a5_a4 + 709 pi_d_a5_a1_proc_3 + 709 pi_d_a5_a2_proc_3
      + 709 pi_d_a5_a4_proc_3 + 709 pi_d_a5_a6_proc_3 + 709 pi_d_a5_a8_proc_3
      + 709 pi_d_a5_a9_proc_3 + pi_y1_a5 + pi_y2_a5_proc_3 >= 0
 c29: - pi_p_a1_a6 + pi_p_a6_a9 - pi_p_a7_a6 + pi_p_a6_a3 - pi_d_a0_a6_proc_2
      - pi_d_a0_a6_proc_0 - pi_d_a0_a6_proc_1 + pi_d_a6_a0_proc_2
      + pi_d_a6_a0_proc_0 + pi_d_a6_a0_proc_1 - pi_d_a1_a6_proc_3
      - pi_d_a1_a6_proc_0 - pi_d_a1_a6_proc_1 + pi_d_a6_a1_proc_3
      + pi_d_a6_a1_proc_0 + pi_d_a6_a1_proc_1 - pi_d_a2_a6_proc_2
      - pi_d_a2_a6_proc_3 - pi_d_a2_a6_proc_0 - pi_d_a2_a6_proc_1
      + pi_d_a6_a2_proc_2 + pi_d_a6_a2_proc_3 + pi_d_a6_a2_proc_0
      + pi_d_a6_a2_proc_1 - pi_d_a3_a6_proc_0 - pi_d_a3_a6_proc_1
      + pi_d_a6_a3_proc_0 + pi_d_a6_a3_proc_1 - pi_d_a4_a6_proc_2
      - pi_d_a4_a6_proc_3 - pi_d_a4_a6_proc_0 - pi_d_a4_a6_proc_1
      + pi_d_a6_a4_proc_2 + pi_d_a6_a4_proc_3 + pi_d_a6_a4_proc_0
      + pi_d_a6_a4_proc_1 - pi_d_a5_a6_proc_2 - pi_d_a5_a6_proc_3
      - pi_d_a5_a6_proc_0 - pi_d_a5_a6_proc_1 + pi_d_a6_a5_proc_2
      + pi_d_a6_a5_proc_3 + pi_d_a6_a5_proc_0 + pi_d_a6_a5_proc_1
      + pi_d_a6_a7_proc_2 + pi_d_a6_a7_proc_0 + pi_d_a6_a7_proc_1
      - pi_d_a7_a6_proc_2 - pi_d_a7_a6_proc_0 - pi_d_a7_a6_proc_1
      + pi_d_a6_a8_proc_2 + pi_d_a6_a8_proc_3 + pi_d_a6_a8_proc_0
      + pi_d_a6_a8_proc_1 - pi_d_a8_a6_proc_2 - pi_d_a8_a6_proc_3
      - pi_d_a8_a6_proc_0 - pi_d_a8_a6_proc_1 + pi_d_a6_a9_proc_3
      - pi_d_a9_a6_proc_3 >= 0
 c30: 610 pi_p_a6_a9 + 610 pi_p_a6_a3 + 610 pi_d_a6_a0_proc_0
      + 610 pi_d_a6_a1_proc_0 + 610 pi_d_a6_a2_proc_0 + 610 pi_d_a6_a3_proc_0
      + 610 pi_d_a6_a4_proc_0 + 610 pi_d_a6_a5_proc_0 + 610 pi_d_a6_a7_proc_0
      + 610 pi_d_a6_a8_proc_0 + pi_y1_a6 + pi_y2_a6_proc_0 >= 0
 c31: 745 pi_p_a6_a9 + 745 pi_p_a6_a3 + 745 pi_d_a6_a0_proc_1
      + 745 pi_d_a6_a1_proc_1 + 745 pi_d_a6_a2_proc_1 + 745 pi_d_a6_a3_proc_1
      + 745 pi_d_a6_a4_proc_1 + 745 pi_d_a6_a5_proc_1 + 745 pi_d_a6_a7_proc_1
      + 745 pi_d_a6_a8_proc_1 + pi_y1_a6 + pi_y2_a6_proc_1 >= 0
 c32: 1281 pi_p_a6_a9 + 1281 pi_p_a6_a3 + 1281 pi_d_a6_a0_proc_2
      + 1281 pi_d_a6_a2_proc_2 + 1281 pi_d_a6_a4_proc_2 + 1281 pi_d_a6_a5_proc_2
      + 1281 pi_d_a6_a7_proc_2 + 1281 pi_d_a6_a8_proc_2 + pi_y1_a6
      + pi_y2_a6_proc_2 >= 0
 c33: 925 pi_p_a6_a9 + 925 pi_p_a6_a3 + 925 pi_d_a6_a1_proc_3
      + 925 pi_d_a6_a2_proc_3 + 925 pi_d_a6_a4_proc_3 + 925 pi_d_a6_a5_proc_3
      + 925 pi_d_a6_a8_proc_3 + 925 pi_d_a6_a9_proc_3 + pi_y1_a6
      + pi_y2_a6_proc_3 >= 0
 c34: - pi_p_a4_a7 + pi_p_a7_a8 + pi_p_a7_a6 - pi_d_a0_a7_proc_2
      - pi_d_a0_a7_proc_0 - pi_d_a0_a7_proc_1 + pi_d_a7_a0_proc_2
      + pi_d_a7_a0_proc_0 + pi_d_a7_a0_proc_1 - pi_d_a1_a7_proc_0
      - pi_d_a1_a7_proc_1 + pi_d_a7_a1_proc_0 + pi_d_a7_a1_proc_1
      - pi_d_a2_a7_proc_2 - pi_d_a2_a7_proc_0 - pi_d_a2_a7_proc_1
      + pi_d_a7_a2_proc_2 + pi_d_a7_a2_proc_0 + pi_d_a7_a2_proc_1
      - pi_d_a3_a7_proc_0 - pi_d_a3_a7_proc_1 + pi_d_a7_a3_proc_0
      + pi_d_a7_a3_proc_1 - pi_d_a4_a7_proc_2 - pi_d_a4_a7_proc_0
      - pi_d_a4_a7_proc_1 + pi_d_a7_a4_proc_2 + pi_d_a7_a4_proc_0
      + pi_d_a7_a4_proc_1 - pi_d_a5_a7_proc_2 - pi_d_a5_a7_proc_0
      - pi_d_a5_a7_proc_1 + pi_d_a7_a5_proc_2 + pi_d_a7_a5_proc_0
      + pi_d_a7_a5_proc_1 - pi_d_a6_a7_proc_2 - pi_d_a6_a7_proc_0
      - pi_d_a6_a7_proc_1 + pi_d_a7_a6_proc_2 + pi_d_a7_a6_proc_0
      + pi_d_a7_a6_proc_1 + pi_d_a7_a8_proc_2 + pi_d_a7_a8_proc_0
      + pi_d_a7_a8_proc_1 - pi_d_a8_a7_proc_2 - pi_d_a8_a7_proc_0
      - pi_d_a8_a7_proc_1 >= 0
 c35: 503 pi_p_a7_a8 + 503 pi_p_a7_a6 + 503 pi_d_a7_a0_proc_0
      + 503 pi_d_a7_a1_proc_0 + 503 pi_d_a7_a2_proc_0 + 503 pi_d_a7_a3_proc_0
      + 503 pi_d_a7_a4_proc_0 + 503 pi_d_a7_a5_proc_0 + 503 pi_d_a7_a6_proc_0
      + 503 pi_d_a7_a8_proc_0 + pi_y1_a7 + pi_y2_a7_proc_0 >= 0
 c36: 991 pi_p_a7_a8 + 991 pi_p_a7_a6 + 991 pi_d_a7_a0_proc_1
      + 991 pi_d_a7_a1_proc_1 + 991 pi_d_a7_a2_proc_1 + 991 pi_d_a7_a3_proc_1
      + 991 pi_d_a7_a4_proc_1 + 991 pi_d_a7_a5_proc_1 + 991 pi_d_a7_a6_proc_1
      + 991 pi_d_a7_a8_proc_1 + pi_y1_a7 + pi_y2_a7_proc_1 >= 0
 c37: 1245 pi_p_a7_a8 + 1245 pi_p_a7_a6 + 1245 pi_d_a7_a0_proc_2
      + 1245 pi_d_a7_a2_proc_2 + 1245 pi_d_a7_a4_proc_2 + 1245 pi_d_a7_a5_proc_2
      + 1245 pi_d_a7_a6_proc_2 + 1245 pi_d_a7_a8_proc_2 + pi_y1_a7
      + pi_y2_a7_proc_2 >= 0
 c38: - pi_p_a7_a8 + pi_p_a8_a4 + pi_p_a8_a2 - pi_d_a0_a8_proc_2
      - pi_d_a0_a8_proc_0 - pi_d_a0_a8_proc_1 + pi_d_a8_a0_proc_2
      + pi_d_a8_a0_proc_0 + pi_d_a8_a0_proc_1 - pi_d_a1_a8_proc_3
      - pi_d_a1_a8_proc_0 - pi_d_a1_a8_proc_1 + pi_d_a8_a1_proc_3
      + pi_d_a8_a1_proc_0 + pi_d_a8_a1_proc_1 - pi_d_a2_a8_proc_2
      - pi_d_a2_a8_proc_3 - pi_d_a2_a8_proc_0 - pi_d_a2_a8_proc_1
      + pi_d_a8_a2_proc_2 + pi_d_a8_a2_proc_3 + pi_d_a8_a2_proc_0
      + pi_d_a8_a2_proc_1 - pi_d_a3_a8_proc_0 - pi_d_a3_a8_proc_1
      + pi_d_a8_a3_proc_0 + pi_d_a8_a3_proc_1 - pi_d_a4_a8_proc_2
      - pi_d_a4_a8_proc_3 - pi_d_a4_a8_proc_0 - pi_d_a4_a8_proc_1
      + pi_d_a8_a4_proc_2 + pi_d_a8_a4_proc_3 + pi_d_a8_a4_proc_0
      + pi_d_a8_a4_proc_1 - pi_d_a5_a8_proc_2 - pi_d_a5_a8_proc_3
      - pi_d_a5_a8_proc_0 - pi_d_a5_a8_proc_1 + pi_d_a8_a5_proc_2
      + pi_d_a8_a5_proc_3 + pi_d_a8_a5_proc_0 + pi_d_a8_a5_proc_1
      - pi_d_a6_a8_proc_2 - pi_d_a6_a8_proc_3 - pi_d_a6_a8_proc_0
      - pi_d_a6_a8_proc_1 + pi_d_a8_a6_proc_2 + pi_d_a8_a6_proc_3
      + pi_d_a8_a6_proc_0 + pi_d_a8_a6_proc_1 - pi_d_a7_a8_proc_2
      - pi_d_a7_a8_proc_0 - pi_d_a7_a8_proc_1 + pi_d_a8_a7_proc_2
      + pi_d_a8_a7_proc_0 + pi_d_a8_a7_proc_1 + pi_d_a8_a9_proc_3
      - pi_d_a9_a8_proc_3 >= 0
 c39: 568 pi_p_a8_a4 + 568 pi_p_a8_a2 + 568 pi_p_a8_a8 + 568 pi_d_a8_a0_proc_0
      + 568 pi_d_a8_a1_proc_0 + 568 pi_d_a8_a2_proc_0 + 568 pi_d_a8_a3_proc_0
      + 568 pi_d_a8_a4_proc_0 + 568 pi_d_a8_a5_proc_0 + 568 pi_d_a8_a6_proc_0
      + 568 pi_d_a8_a7_proc_0 + pi_y1_a8 + pi_y2_a8_proc_0 >= 0
 c40: 251 pi_p_a8_a4 + 251 pi_p_a8_a2 + 251 pi_p_a8_a8 + 251 pi_d_a8_a0_proc_1
      + 251 pi_d_a8_a1_proc_1 + 251 pi_d_a8_a2_proc_1 + 251 pi_d_a8_a3_proc_1
      + 251 pi_d_a8_a4_proc_1 + 251 pi_d_a8_a5_proc_1 + 251 pi_d_a8_a6_proc_1
      + 251 pi_d_a8_a7_proc_1 + pi_y1_a8 + pi_y2_a8_proc_1 >= 0
 c41: 541 pi_p_a8_a4 + 541 pi_p_a8_a2 + 541 pi_p_a8_a8 + 541 pi_d_a8_a0_proc_2
      + 541 pi_d_a8_a2_proc_2 + 541 pi_d_a8_a4_proc_2 + 541 pi_d_a8_a5_proc_2
      + 541 pi_d_a8_a6_proc_2 + 541 pi_d_a8_a7_proc_2 + pi_y1_a8
      + pi_y2_a8_proc_2 >= 0
 c42: 1156 pi_p_a8_a4 + 1156 pi_p_a8_a2 + 1156 pi_p_a8_a8
      + 1156 pi_d_a8_a1_proc_3 + 1156 pi_d_a8_a2_proc_3 + 1156 pi_d_a8_a4_proc_3
      + 1156 pi_d_a8_a5_proc_3 + 1156 pi_d_a8_a6_proc_3 + 1156 pi_d_a8_a9_proc_3
      + pi_y1_a8 + pi_y2_a8_proc_3 >= 0
 c43: - pi_p_a6_a9 - pi_p_a0_a9 - pi_d_a1_a9_proc_3 + pi_d_a9_a1_proc_3
      - pi_d_a2_a9_proc_3 + pi_d_a9_a2_proc_3 - pi_d_a4_a9_proc_3
      + pi_d_a9_a4_proc_3 - pi_d_a5_a9_proc_3 + pi_d_a9_a5_proc_3
      - pi_d_a6_a9_proc_3 + pi_d_a9_a6_proc_3 - pi_d_a8_a9_proc_3
      + pi_d_a9_a8_proc_3 >= 0
 c44: 729 pi_d_a9_a1_proc_3 + 729 pi_d_a9_a2_proc_3 + 729 pi_d_a9_a4_proc_3
      + 729 pi_d_a9_a5_proc_3 + 729 pi_d_a9_a6_proc_3 + 729 pi_d_a9_a8_proc_3
      + pi_y1_a9 + pi_y2_a9_proc_3 >= 0

Bounds
       pi_y1_a0 Free
       pi_y1_a1 Free
       pi_y1_a2 Free
       pi_y1_a3 Free
       pi_y1_a4 Free
       pi_y1_a5 Free
       pi_y1_a6 Free
       pi_y1_a7 Free
       pi_y1_a8 Free
       pi_y1_a9 Free
End
