benchmark/results/graph__10-1000-0.10-04_2/graph__10-1000-0.10-04_2_QuintonOs_Benders_aux.txt
solution for: Quinton Bounded Benders_auxiliary_sub
objective: 0.000335909
status: OPTIMAL_SOLUTION(2)
pi_p_a2_a1=0.000
pi_p_a1_a6=0.000
pi_p_a6_a3=0.000
pi_p_a3_a2=0.000
pi_y1_a1=-0.345
pi_y1_a2=-0.136
pi_y1_a3=-0.313
pi_y1_a6=-0.205
